robust/generate/spp_dkp_Lefebvre_et_al_2026/src/shortest_path_7_7.kp
49
145

[1.28 1.05 3.95 3.8 2.91 2.42 2.33 0.9 3.28 3.82 3.08 2.13 1.89 3.42 3.6 0.98 4.1 0.25 1.24 1.33 2.99 3.02 4.02 2.59 1.51 1.79 3.87 1.07 1.29 0.32 1.07 3.88 3.6 2.72]

[69 2 66 18 4 68 25 60 26 9 95 93 63 57 21 3 15 26 60 54 73 27 33 47 34 87 58 62 78 51 30 76 79 34]
