robust/generate/spp_dkp_Lefebvre_et_al_2026/src/shortest_path_7_7.lp
\ Model sp_7_7
\ LP format - for model browsing. Use MPS format to capture full model detail.
\ Signature: 0xc8ba32e33faaac64
Minimize
  53.25 y[0,1] + 61.59 y[0,2] + 65.46 y[0,3] + 43.05 y[0,4] + 53.08 y[0,5]
   + 53.25 y[1,0] + 82.73 y[1,2] + 54.08 y[1,3] + 86.28 y[1,4]
   + 46.96 y[1,6] + 61.59 y[2,0] + 82.73 y[2,1] + 42.45 y[2,3]
   + 36.14 y[2,4] + 36.01 y[2,5] + 80.81 y[2,6] + 65.46 y[3,0]
   + 54.08 y[3,1] + 42.45 y[3,2] + 67.68 y[3,4] + 72.45 y[3,5]
   + 38.42 y[3,6] + 43.05 y[4,0] + 86.28 y[4,1] + 36.14 y[4,2]
   + 67.68 y[4,3] + 10.05 y[4,5] + 53.08 y[5,0] + 36.01 y[5,2]
   + 72.45 y[5,3] + 10.05 y[5,4] + 46.96 y[6,1] + 80.81 y[6,2]
   + 38.42 y[6,3] + 5.325 r[0,1] + 6.159 r[0,2] + 6.546 r[0,3]
   + 4.305 r[0,4] + 5.308 r[0,5] + 5.325 r[1,0] + 8.273 r[1,2]
   + 5.408 r[1,3] + 8.628 r[1,4] + 4.696 r[1,6] + 6.159 r[2,0]
   + 8.273 r[2,1] + 4.245 r[2,3] + 3.614 r[2,4] + 3.601 r[2,5]
   + 8.081 r[2,6] + 6.546 r[3,0] + 5.408 r[3,1] + 4.245 r[3,2]
   + 6.768 r[3,4] + 7.245 r[3,5] + 3.842 r[3,6] + 4.305 r[4,0]
   + 8.628 r[4,1] + 3.614 r[4,2] + 6.768 r[4,3] + 1.005 r[4,5]
   + 5.308 r[5,0] + 3.601 r[5,2] + 7.245 r[5,3] + 1.005 r[5,4]
   + 4.696 r[6,1] + 8.081 r[6,2] + 3.842 r[6,3]
Subject To
 flow_cons_inner_nodes[0]: - y[0,1] - y[0,2] - y[0,3] - y[0,4] - y[0,5]
   + y[1,0] + y[2,0] + y[3,0] + y[4,0] + y[5,0] = 0
 flow_cons_inner_nodes[1]: y[0,1] - y[1,0] - y[1,2] - y[1,3] - y[1,4]
   - y[1,6] + y[2,1] + y[3,1] + y[4,1] + y[6,1] = 0
 flow_cons_inner_nodes[2]: y[0,2] + y[1,2] - y[2,0] - y[2,1] - y[2,3]
   - y[2,4] - y[2,5] - y[2,6] + y[3,2] + y[4,2] + y[5,2] + y[6,2] = 0
 flow_cons_inner_nodes[3]: y[0,3] + y[1,3] + y[2,3] - y[3,0] - y[3,1]
   - y[3,2] - y[3,4] - y[3,5] - y[3,6] + y[4,3] + y[5,3] + y[6,3] = 0
 flow_cons_inner_nodes[4]: y[0,4] + y[1,4] + y[2,4] + y[3,4] - y[4,0]
   - y[4,1] - y[4,2] - y[4,3] - y[4,5] + y[5,4] = 0
 flow_cons_source: - y[0,5] - y[2,5] - y[3,5] - y[4,5] + y[5,0] + y[5,2]
   + y[5,3] + y[5,4] = 1
 flow_cons_target: y[1,6] + y[2,6] + y[3,6] - y[6,1] - y[6,2] - y[6,3] = 1
 primal_lower: - 1.28 y[0,1] - 1.05 y[0,2] - 3.95 y[0,3] - 3.8 y[0,4]
   - 2.91 y[0,5] - 2.42 y[1,0] - 2.33 y[1,2] - 0.9 y[1,3] - 3.28 y[1,4]
   - 3.82 y[1,6] - 3.08 y[2,0] - 2.13 y[2,1] - 1.89 y[2,3] - 3.42 y[2,4]
   - 3.6 y[2,5] - 0.98 y[2,6] - 4.1 y[3,0] - 0.25 y[3,1] - 1.24 y[3,2]
   - 1.33 y[3,4] - 2.99 y[3,5] - 3.02 y[3,6] - 4.02 y[4,0] - 2.59 y[4,1]
   - 1.51 y[4,2] - 1.79 y[4,3] - 3.87 y[4,5] - 1.07 y[5,0] - 1.29 y[5,2]
   - 0.32 y[5,3] - 1.07 y[5,4] - 3.88 y[6,1] - 3.6 y[6,2] - 2.72 y[6,3]
   + 69 u[0,1] + 2 u[0,2] + 66 u[0,3] + 18 u[0,4] + 4 u[0,5] + 68 u[1,0]
   + 25 u[1,2] + 60 u[1,3] + 26 u[1,4] + 9 u[1,6] + 95 u[2,0] + 93 u[2,1]
   + 63 u[2,3] + 57 u[2,4] + 21 u[2,5] + 3 u[2,6] + 15 u[3,0] + 26 u[3,1]
   + 60 u[3,2] + 54 u[3,4] + 73 u[3,5] + 27 u[3,6] + 33 u[4,0] + 47 u[4,1]
   + 34 u[4,2] + 87 u[4,3] + 58 u[4,5] + 62 u[5,0] + 78 u[5,2] + 51 u[5,3]
   + 30 u[5,4] + 76 u[6,1] + 79 u[6,2] + 34 u[6,3] <= 145
 mccormick1[0,1]: - u[0,1] + r[0,1] <= 0
 mccormick1[0,2]: - u[0,2] + r[0,2] <= 0
 mccormick1[0,3]: - u[0,3] + r[0,3] <= 0
 mccormick1[0,4]: - u[0,4] + r[0,4] <= 0
 mccormick1[0,5]: - u[0,5] + r[0,5] <= 0
 mccormick1[1,0]: - u[1,0] + r[1,0] <= 0
 mccormick1[1,2]: - u[1,2] + r[1,2] <= 0
 mccormick1[1,3]: - u[1,3] + r[1,3] <= 0
 mccormick1[1,4]: - u[1,4] + r[1,4] <= 0
 mccormick1[1,6]: - u[1,6] + r[1,6] <= 0
 mccormick1[2,0]: - u[2,0] + r[2,0] <= 0
 mccormick1[2,1]: - u[2,1] + r[2,1] <= 0
 mccormick1[2,3]: - u[2,3] + r[2,3] <= 0
 mccormick1[2,4]: - u[2,4] + r[2,4] <= 0
 mccormick1[2,5]: - u[2,5] + r[2,5] <= 0
 mccormick1[2,6]: - u[2,6] + r[2,6] <= 0
 mccormick1[3,0]: - u[3,0] + r[3,0] <= 0
 mccormick1[3,1]: - u[3,1] + r[3,1] <= 0
 mccormick1[3,2]: - u[3,2] + r[3,2] <= 0
 mccormick1[3,4]: - u[3,4] + r[3,4] <= 0
 mccormick1[3,5]: - u[3,5] + r[3,5] <= 0
 mccormick1[3,6]: - u[3,6] + r[3,6] <= 0
 mccormick1[4,0]: - u[4,0] + r[4,0] <= 0
 mccormick1[4,1]: - u[4,1] + r[4,1] <= 0
 mccormick1[4,2]: - u[4,2] + r[4,2] <= 0
 mccormick1[4,3]: - u[4,3] + r[4,3] <= 0
 mccormick1[4,5]: - u[4,5] + r[4,5] <= 0
 mccormick1[5,0]: - u[5,0] + r[5,0] <= 0
 mccormick1[5,2]: - u[5,2] + r[5,2] <= 0
 mccormick1[5,3]: - u[5,3] + r[5,3] <= 0
 mccormick1[5,4]: - u[5,4] + r[5,4] <= 0
 mccormick1[6,1]: - u[6,1] + r[6,1] <= 0
 mccormick1[6,2]: - u[6,2] + r[6,2] <= 0
 mccormick1[6,3]: - u[6,3] + r[6,3] <= 0
 mccormick2[0,1]: - y[0,1] + r[0,1] <= 0
 mccormick2[0,2]: - y[0,2] + r[0,2] <= 0
 mccormick2[0,3]: - y[0,3] + r[0,3] <= 0
 mccormick2[0,4]: - y[0,4] + r[0,4] <= 0
 mccormick2[0,5]: - y[0,5] + r[0,5] <= 0
 mccormick2[1,0]: - y[1,0] + r[1,0] <= 0
 mccormick2[1,2]: - y[1,2] + r[1,2] <= 0
 mccormick2[1,3]: - y[1,3] + r[1,3] <= 0
 mccormick2[1,4]: - y[1,4] + r[1,4] <= 0
 mccormick2[1,6]: - y[1,6] + r[1,6] <= 0
 mccormick2[2,0]: - y[2,0] + r[2,0] <= 0
 mccormick2[2,1]: - y[2,1] + r[2,1] <= 0
 mccormick2[2,3]: - y[2,3] + r[2,3] <= 0
 mccormick2[2,4]: - y[2,4] + r[2,4] <= 0
 mccormick2[2,5]: - y[2,5] + r[2,5] <= 0
 mccormick2[2,6]: - y[2,6] + r[2,6] <= 0
 mccormick2[3,0]: - y[3,0] + r[3,0] <= 0
 mccormick2[3,1]: - y[3,1] + r[3,1] <= 0
 mccormick2[3,2]: - y[3,2] + r[3,2] <= 0
 mccormick2[3,4]: - y[3,4] + r[3,4] <= 0
 mccormick2[3,5]: - y[3,5] + r[3,5] <= 0
 mccormick2[3,6]: - y[3,6] + r[3,6] <= 0
 mccormick2[4,0]: - y[4,0] + r[4,0] <= 0
 mccormick2[4,1]: - y[4,1] + r[4,1] <= 0
 mccormick2[4,2]: - y[4,2] + r[4,2] <= 0
 mccormick2[4,3]: - y[4,3] + r[4,3] <= 0
 mccormick2[4,5]: - y[4,5] + r[4,5] <= 0
 mccormick2[5,0]: - y[5,0] + r[5,0] <= 0
 mccormick2[5,2]: - y[5,2] + r[5,2] <= 0
 mccormick2[5,3]: - y[5,3] + r[5,3] <= 0
 mccormick2[5,4]: - y[5,4] + r[5,4] <= 0
 mccormick2[6,1]: - y[6,1] + r[6,1] <= 0
 mccormick2[6,2]: - y[6,2] + r[6,2] <= 0
 mccormick2[6,3]: - y[6,3] + r[6,3] <= 0
 mccormick3[0,1]: - y[0,1] - u[0,1] + r[0,1] >= -1
 mccormick3[0,2]: - y[0,2] - u[0,2] + r[0,2] >= -1
 mccormick3[0,3]: - y[0,3] - u[0,3] + r[0,3] >= -1
 mccormick3[0,4]: - y[0,4] - u[0,4] + r[0,4] >= -1
 mccormick3[0,5]: - y[0,5] - u[0,5] + r[0,5] >= -1
 mccormick3[1,0]: - y[1,0] - u[1,0] + r[1,0] >= -1
 mccormick3[1,2]: - y[1,2] - u[1,2] + r[1,2] >= -1
 mccormick3[1,3]: - y[1,3] - u[1,3] + r[1,3] >= -1
 mccormick3[1,4]: - y[1,4] - u[1,4] + r[1,4] >= -1
 mccormick3[1,6]: - y[1,6] - u[1,6] + r[1,6] >= -1
 mccormick3[2,0]: - y[2,0] - u[2,0] + r[2,0] >= -1
 mccormick3[2,1]: - y[2,1] - u[2,1] + r[2,1] >= -1
 mccormick3[2,3]: - y[2,3] - u[2,3] + r[2,3] >= -1
 mccormick3[2,4]: - y[2,4] - u[2,4] + r[2,4] >= -1
 mccormick3[2,5]: - y[2,5] - u[2,5] + r[2,5] >= -1
 mccormick3[2,6]: - y[2,6] - u[2,6] + r[2,6] >= -1
 mccormick3[3,0]: - y[3,0] - u[3,0] + r[3,0] >= -1
 mccormick3[3,1]: - y[3,1] - u[3,1] + r[3,1] >= -1
 mccormick3[3,2]: - y[3,2] - u[3,2] + r[3,2] >= -1
 mccormick3[3,4]: - y[3,4] - u[3,4] + r[3,4] >= -1
 mccormick3[3,5]: - y[3,5] - u[3,5] + r[3,5] >= -1
 mccormick3[3,6]: - y[3,6] - u[3,6] + r[3,6] >= -1
 mccormick3[4,0]: - y[4,0] - u[4,0] + r[4,0] >= -1
 mccormick3[4,1]: - y[4,1] - u[4,1] + r[4,1] >= -1
 mccormick3[4,2]: - y[4,2] - u[4,2] + r[4,2] >= -1
 mccormick3[4,3]: - y[4,3] - u[4,3] + r[4,3] >= -1
 mccormick3[4,5]: - y[4,5] - u[4,5] + r[4,5] >= -1
 mccormick3[5,0]: - y[5,0] - u[5,0] + r[5,0] >= -1
 mccormick3[5,2]: - y[5,2] - u[5,2] + r[5,2] >= -1
 mccormick3[5,3]: - y[5,3] - u[5,3] + r[5,3] >= -1
 mccormick3[5,4]: - y[5,4] - u[5,4] + r[5,4] >= -1
 mccormick3[6,1]: - y[6,1] - u[6,1] + r[6,1] >= -1
 mccormick3[6,2]: - y[6,2] - u[6,2] + r[6,2] >= -1
 mccormick3[6,3]: - y[6,3] - u[6,3] + r[6,3] >= -1
Bounds
Binaries
 y[0,1] y[0,2] y[0,3] y[0,4] y[0,5] y[1,0] y[1,2] y[1,3] y[1,4] y[1,6]
 y[2,0] y[2,1] y[2,3] y[2,4] y[2,5] y[2,6] y[3,0] y[3,1] y[3,2] y[3,4]
 y[3,5] y[3,6] y[4,0] y[4,1] y[4,2] y[4,3] y[4,5] y[5,0] y[5,2] y[5,3]
 y[5,4] y[6,1] y[6,2] y[6,3] u[0,1] u[0,2] u[0,3] u[0,4] u[0,5] u[1,0]
 u[1,2] u[1,3] u[1,4] u[1,6] u[2,0] u[2,1] u[2,3] u[2,4] u[2,5] u[2,6]
 u[3,0] u[3,1] u[3,2] u[3,4] u[3,5] u[3,6] u[4,0] u[4,1] u[4,2] u[4,3]
 u[4,5] u[5,0] u[5,2] u[5,3] u[5,4] u[6,1] u[6,2] u[6,3] r[0,1] r[0,2]
 r[0,3] r[0,4] r[0,5] r[1,0] r[1,2] r[1,3] r[1,4] r[1,6] r[2,0] r[2,1]
 r[2,3] r[2,4] r[2,5] r[2,6] r[3,0] r[3,1] r[3,2] r[3,4] r[3,5] r[3,6]
 r[4,0] r[4,1] r[4,2] r[4,3] r[4,5] r[5,0] r[5,2] r[5,3] r[5,4] r[6,1]
 r[6,2] r[6,3]
End
